NAME: concorde91
TYPE: TSP
DIMENSION: 15 
EDGE_WEIGHT_TYPE: EUC_2D
NODE_COORD_SECTION
1 60 100
2 95 43
3 37 100
4 88 79
5 45 52
6 50 50
7 46 92
8 62 26
9 61 17
10 79 40
11 56 54
12 77 24
13 40 37
14 51 58
15 52 21
